c Result of efficient AIG-to-CNF conversion using package CNF
p cnf 377 1299
2 3 -288 0
2 3 -4 0
2 3 -273 0
-2 -3 0
-2 4 273 288 0
-3 345 346 347 348 0
3 -348 0
3 -347 0
3 -345 0
3 -346 0
-4 5 248 257 272 0
4 -257 0
4 -272 0
4 -5 0
4 -248 0
-5 6 47 63 86 0
5 -6 0
5 -86 0
5 -63 0
5 -47 0
6 -7 33 34 35 0
-6 7 0
-6 -35 0
-6 -34 0
-6 -33 0
-7 -373 8 0
-7 373 14 0
-7 -373 -12 0
7 373 -14 0
7 -373 -8 12 0
-8 374 9 0
8 -374 0
8 -9 0
-9 375 10 0
9 -375 0
9 -10 0
-10 376 11 0
-10 313 345 -376 0
10 376 -11 0
10 -313 -376 0
10 -345 -376 0
-11 314 346 0
11 -314 0
11 -346 0
-12 374 13 0
12 -374 0
12 -13 0
-13 313 375 -376 0
-13 314 375 376 0
13 -375 0
13 -314 376 0
13 -313 -376 0
14 -15 26 0
-14 15 0
-14 -26 0
-15 374 16 0
-15 -374 21 0
15 -374 -21 0
15 374 -16 0
-16 375 17 0
-16 -375 19 0
16 -375 -19 0
16 375 -17 0
-17 376 18 0
-17 321 353 -376 0
17 376 -18 0
17 -321 -376 0
17 -353 -376 0
-18 322 354 0
18 -322 0
18 -354 0
-19 376 20 0
-19 319 351 -376 0
19 376 -20 0
19 -319 -376 0
19 -351 -376 0
-20 320 352 0
20 -320 0
20 -352 0
-21 375 22 0
-21 -375 24 0
21 -375 -24 0
21 375 -22 0
-22 376 23 0
-22 317 349 -376 0
22 376 -23 0
22 -317 -376 0
22 -349 -376 0
-23 318 350 0
23 -318 0
23 -350 0
-24 376 25 0
-24 315 347 -376 0
24 376 -25 0
24 -315 -376 0
24 -347 -376 0
-25 316 348 0
25 -316 0
25 -348 0
-26 374 27 0
-26 -374 30 0
26 -374 -30 0
26 374 -27 0
-27 375 28 0
-27 -375 29 0
27 -375 -29 0
27 375 -28 0
-28 322 376 0
-28 321 -376 0
28 -322 376 0
28 -321 -376 0
-29 320 376 0
-29 319 -376 0
29 -320 376 0
29 -319 -376 0
-30 375 31 0
-30 -375 32 0
30 -375 -32 0
30 375 -31 0
-31 318 376 0
-31 317 -376 0
31 -318 376 0
31 -317 -376 0
-32 316 376 0
-32 315 -376 0
32 -316 376 0
32 -315 -376 0
-33 354 355 356 0
33 -354 0
33 -356 0
33 -355 0
-34 369 370 371 0
34 -369 0
34 -371 0
34 -370 0
-35 36 38 42 0
35 -36 0
35 -38 0
35 -42 0
-36 367 368 372 37 0
36 -37 0
36 -372 0
36 -367 0
36 -368 0
-37 365 366 0
37 -365 0
37 -366 0
-38 39 41 0
38 -39 0
38 -41 0
-39 364 40 0
39 -364 0
39 -40 0
-40 361 362 363 0
40 -361 0
40 -363 0
40 -362 0
-41 351 352 353 0
41 -351 0
41 -353 0
41 -352 0
-42 43 44 0
42 -43 0
42 -44 0
-43 359 360 0
43 -359 0
43 -360 0
-44 45 46 0
44 -45 0
44 -46 0
-45 357 358 0
45 -357 0
45 -358 0
-46 349 350 0
46 -349 0
46 -350 0
47 373 48 -54 0
-47 54 0
-47 -48 0
-47 -373 0
-48 40 49 50 51 0
48 -51 0
48 -40 0
48 -50 0
48 -49 0
-49 41 46 0
49 -41 0
49 -46 0
-50 367 368 372 34 0
50 -34 0
50 -372 0
50 -367 0
50 -368 0
-51 359 33 45 52 0
51 -359 0
51 -52 0
51 -45 0
51 -33 0
-52 364 53 0
52 -364 0
52 -53 0
-53 360 37 0
53 -360 0
53 -37 0
54 -55 60 0
-54 55 0
-54 -60 0
-55 374 56 0
55 -374 0
55 -56 0
-56 375 57 0
-56 -375 59 0
56 -375 -59 0
56 375 -57 0
-57 376 58 0
-57 314 346 -376 0
57 376 -58 0
57 -314 -376 0
57 -346 -376 0
-58 315 347 0
58 -315 0
58 -347 0
-59 313 345 376 0
59 -313 0
59 -376 0
59 -345 0
-60 374 61 0
60 -374 0
60 -61 0
-61 375 62 0
-61 313 -375 376 0
61 375 -62 0
61 -375 -376 0
61 -313 -375 0
-62 315 376 0
-62 314 -376 0
62 -315 376 0
62 -314 -376 0
-63 -48 75 0
-63 64 75 0
-63 -72 75 0
63 -75 0
63 48 -64 72 0
-64 65 66 67 68 0
64 -68 0
64 -65 0
64 -67 0
64 -66 0
-65 37 39 0
65 -37 0
65 -39 0
-66 351 46 0
66 -351 0
66 -46 0
-67 43 45 0
67 -43 0
67 -45 0
-68 373 374 69 70 0
68 -373 0
68 -70 0
68 -69 0
68 -374 0
-69 -375 10 0
-69 375 24 0
69 375 -24 0
69 -375 -10 0
-70 50 71 0
70 -50 0
70 -71 0
-71 352 353 33 0
71 -33 0
71 -353 0
71 -352 0
-72 373 374 73 0
72 -73 0
72 -374 0
72 -373 0
-73 -375 74 0
-73 375 32 0
73 375 -32 0
73 -375 -74 0
-74 314 376 0
-74 313 -376 0
74 -314 376 0
74 -313 -376 0
-75 -77 80 0
-75 -48 -77 0
-75 48 76 80 0
75 48 -80 0
75 -48 77 0
75 -76 77 0
-76 373 8 0
76 -373 0
76 -8 0
-77 373 40 78 79 0
77 -373 0
77 -79 0
77 -78 0
77 -40 0
-78 359 45 66 0
78 -66 0
78 -45 0
78 -359 0
-79 12 52 70 0
79 -12 0
79 -52 0
79 -70 0
80 -81 84 0
-80 81 0
-80 -84 0
-81 373 82 0
81 -373 0
81 -82 0
-82 374 83 0
82 -374 0
82 -83 0
-83 313 345 375 376 0
83 -376 0
83 -375 0
83 -313 0
83 -345 0
-84 373 85 0
84 -373 0
84 -85 0
-85 313 374 375 376 0
85 -376 0
85 -375 0
85 -313 0
85 -374 0
86 -372 -87 164 0
86 372 164 -171 0
-86 -164 0
-86 372 171 0
-86 -372 87 0
-87 7 88 160 0
-87 7 88 -162 0
87 -7 0
87 -88 0
87 -160 162 0
88 -89 -153 0
88 -89 -145 0
88 373 -89 0
-88 89 0
-88 -373 145 153 0
-89 373 90 103 120 0
89 -120 0
89 -103 0
89 -373 0
89 -90 0
90 374 -91 0
90 -374 -98 0
-90 -374 98 0
-90 374 91 0
91 -375 -92 0
91 375 -95 97 0
-91 -375 92 0
-91 375 -97 0
-91 375 95 0
92 326 376 -93 0
92 325 -376 -93 0
-92 93 0
-92 -326 376 0
-92 -325 -376 0
-93 376 94 0
-93 325 357 -376 0
93 376 -94 0
93 -325 -376 0
93 -357 -376 0
-94 326 358 0
94 -326 0
94 -358 0
-95 376 96 0
-95 327 359 -376 0
95 376 -96 0
95 -327 -376 0
95 -359 -376 0
-96 328 360 0
96 -328 0
96 -360 0
-97 328 376 0
-97 327 -376 0
97 -328 376 0
97 -327 -376 0
98 -375 -99 0
98 375 -100 102 0
-98 -375 99 0
-98 375 -102 0
-98 375 100 0
99 322 376 -17 0
99 321 -376 -17 0
-99 17 0
-99 -322 376 0
-99 -321 -376 0
-100 -376 101 0
-100 324 356 376 0
100 -356 376 0
100 -376 -101 0
100 -324 376 0
-101 323 355 0
101 -323 0
101 -355 0
-102 324 376 0
-102 323 -376 0
102 -324 376 0
102 -323 -376 0
103 -104 113 0
-103 104 0
-103 -113 0
-104 374 105 0
-104 -374 109 0
104 -374 -109 0
104 374 -105 0
-105 375 106 0
-105 -375 108 0
105 -375 -108 0
105 375 -106 0
-106 376 107 0
-106 324 356 -376 0
106 376 -107 0
106 -324 -376 0
106 -356 -376 0
-107 325 357 0
107 -325 0
107 -357 0
-108 376 101 0
-108 322 354 -376 0
108 376 -101 0
108 -322 -376 0
108 -354 -376 0
-109 375 110 0
-109 -375 112 0
109 -375 -112 0
109 375 -110 0
-110 376 111 0
-110 320 352 -376 0
110 376 -111 0
110 -320 -376 0
110 -352 -376 0
-111 321 353 0
111 -321 0
111 -353 0
-112 -376 23 0
-112 319 351 376 0
112 -351 376 0
112 -376 -23 0
112 -319 376 0
-113 374 114 0
-113 -374 117 0
113 -374 -117 0
113 374 -114 0
-114 375 115 0
-114 -375 116 0
114 -375 -116 0
114 375 -115 0
-115 325 376 0
-115 324 -376 0
115 -325 376 0
115 -324 -376 0
-116 323 376 0
-116 322 -376 0
116 -323 376 0
116 -322 -376 0
-117 375 118 0
-117 -375 119 0
117 -375 -119 0
117 375 -118 0
-118 321 376 0
-118 320 -376 0
118 -321 376 0
118 -320 -376 0
-119 319 376 0
-119 318 -376 0
119 -319 376 0
119 -318 -376 0
-120 121 135 138 0
-120 121 135 -142 0
120 -121 0
120 -135 0
120 -138 142 0
-121 122 -132 0
-121 -126 130 0
-121 -126 -132 0
-121 122 130 0
121 -122 126 0
121 -130 132 0
-122 374 123 0
-122 -374 125 0
122 -374 -125 0
122 374 -123 0
-123 -375 106 0
-123 375 124 0
123 375 -124 0
123 -375 -106 0
-124 -376 94 0
-124 327 359 376 0
124 -359 376 0
124 -376 -94 0
124 -327 376 0
-125 375 108 0
-125 -375 110 0
125 -375 -110 0
125 375 -108 0
-126 374 127 0
-126 -374 129 0
126 -374 -129 0
126 374 -127 0
-127 -375 115 0
-127 375 128 0
127 375 -128 0
127 -375 -115 0
-128 327 376 0
-128 326 -376 0
128 -327 376 0
128 -326 -376 0
-129 375 116 0
-129 -375 118 0
129 -375 -118 0
129 375 -116 0
-130 -374 16 0
-130 374 131 0
130 374 -131 0
130 -374 -16 0
-131 375 93 0
-131 -375 100 0
131 -375 -100 0
131 375 -93 0
-132 -374 27 0
-132 374 133 0
132 374 -133 0
132 -374 -27 0
-133 375 134 0
-133 -375 102 0
133 -375 -102 0
133 375 -134 0
-134 326 376 0
-134 325 -376 0
134 -326 376 0
134 -325 -376 0
135 374 -98 0
135 -374 -136 0
-135 -374 136 0
-135 374 98 0
136 -375 -137 0
136 375 -19 29 0
-136 375 19 0
-136 -375 137 0
-136 375 -29 0
137 318 376 -22 0
137 317 -376 -22 0
-137 22 0
-137 -318 376 0
-137 -317 -376 0
-138 374 125 0
-138 -374 139 0
138 -374 -139 0
138 374 -125 0
-139 375 112 0
-139 -375 140 0
139 -375 -140 0
139 375 -112 0
-140 376 141 0
-140 316 348 -376 0
140 376 -141 0
140 -316 -376 0
140 -348 -376 0
-141 317 349 0
141 -317 0
141 -349 0
-142 374 129 0
-142 -374 143 0
142 -374 -143 0
142 374 -129 0
-143 375 119 0
-143 -375 144 0
143 -375 -144 0
143 375 -119 0
-144 317 376 0
-144 316 -376 0
144 -317 376 0
144 -316 -376 0
-145 54 146 151 0
-145 54 -148 151 0
145 -54 0
145 -151 0
145 -146 148 0
-146 -374 83 0
-146 374 147 0
146 374 -147 0
146 -374 -83 0
-147 -375 57 0
-147 375 140 0
147 375 -140 0
147 -375 -57 0
-148 -374 149 0
-148 374 150 0
148 374 -150 0
148 -374 -149 0
-149 313 375 376 0
149 -313 0
149 -376 0
149 -375 0
-150 -375 62 0
-150 375 144 0
150 375 -144 0
150 -375 -62 0
151 374 -152 0
-151 -374 0
-151 152 0
152 -69 73 0
-152 69 0
-152 -73 0
-153 154 157 158 0
-153 154 157 -159 0
153 -154 0
153 -157 0
153 -158 159 0
154 -155 156 0
-154 155 0
-154 -156 0
-155 -374 9 0
-155 374 21 0
155 374 -21 0
155 -374 -9 0
-156 -374 13 0
-156 374 30 0
156 374 -30 0
156 -374 -13 0
-157 -374 152 0
-157 374 136 0
157 374 -136 0
157 -374 -152 0
-158 -374 56 0
-158 374 139 0
158 374 -139 0
158 -374 -56 0
-159 -374 61 0
-159 374 143 0
159 374 -143 0
159 -374 -61 0
-160 -373 82 0
-160 373 161 0
160 373 -161 0
160 -373 -82 0
-161 374 109 0
-161 -374 147 0
161 -374 -147 0
161 374 -109 0
-162 -373 85 0
-162 373 163 0
162 373 -163 0
162 -373 -85 0
-163 374 117 0
-163 -374 150 0
163 -374 -150 0
163 374 -117 0
-164 71 165 170 0
164 -71 0
164 -165 0
164 -170 0
-165 45 166 0
165 -45 0
165 -166 0
-166 167 169 0
166 -167 0
166 -169 0
-167 37 168 0
167 -37 0
167 -168 0
-168 367 368 369 370 0
168 -370 0
168 -369 0
168 -367 0
168 -368 0
-169 371 39 0
169 -371 0
169 -39 0
-170 43 66 0
170 -43 0
170 -66 0
-171 -373 172 201 0
-171 373 191 201 0
171 -201 0
171 373 -191 0
171 -373 -172 0
172 -173 184 0
-172 173 0
-172 -184 0
-173 374 174 0
-173 -374 179 0
173 -374 -179 0
173 374 -174 0
-174 375 175 0
-174 -375 177 0
174 -375 -177 0
174 375 -175 0
-175 -376 176 0
-175 335 367 376 0
175 -367 376 0
175 -376 -176 0
175 -335 376 0
-176 334 366 0
176 -334 0
176 -366 0
-177 376 178 0
-177 332 364 -376 0
177 376 -178 0
177 -332 -376 0
177 -364 -376 0
-178 333 365 0
178 -333 0
178 -365 0
-179 375 180 0
-179 -375 182 0
179 -375 -182 0
179 375 -180 0
-180 376 181 0
-180 330 362 -376 0
180 376 -181 0
180 -330 -376 0
180 -362 -376 0
-181 331 363 0
181 -331 0
181 -363 0
-182 376 183 0
-182 328 360 -376 0
182 376 -183 0
182 -328 -376 0
182 -360 -376 0
-183 329 361 0
183 -329 0
183 -361 0
-184 374 185 0
-184 -374 188 0
184 -374 -188 0
184 374 -185 0
-185 375 186 0
-185 -375 187 0
185 -375 -187 0
185 375 -186 0
-186 335 376 0
-186 334 -376 0
186 -335 376 0
186 -334 -376 0
-187 333 376 0
-187 332 -376 0
187 -333 376 0
187 -332 -376 0
-188 375 189 0
-188 -375 190 0
188 -375 -190 0
188 375 -189 0
-189 331 376 0
-189 330 -376 0
189 -331 376 0
189 -330 -376 0
-190 329 376 0
-190 328 -376 0
190 -329 376 0
190 -328 -376 0
-191 192 197 0
-191 375 192 0
191 -192 0
191 -375 -197 0
192 -374 -375 -195 0
192 -374 375 -193 0
-192 374 0
-192 -375 195 0
-192 375 193 0
193 -376 -194 0
193 339 -371 376 0
-193 371 376 0
-193 -376 194 0
-193 -339 376 0
194 338 -370 0
-194 -338 0
-194 370 0
195 376 -196 0
195 336 -368 -376 0
-195 376 196 0
-195 -336 -376 0
-195 368 -376 0
196 337 -369 0
-196 -337 0
-196 369 0
197 198 -199 200 0
197 -373 198 200 0
-197 -200 0
-197 -198 0
-197 373 199 0
198 340 372 -376 0
-198 376 0
-198 -372 0
-198 -340 0
-199 341 376 0
199 -341 0
199 -376 0
-200 340 374 -376 0
-200 341 374 376 0
200 -374 0
200 -341 376 0
200 -340 -376 0
201 -215 223 0
201 -374 -202 223 0
-201 -223 0
-201 202 215 0
-201 374 215 0
-202 174 203 212 0
-202 -185 203 212 0
202 -212 0
202 -203 0
202 -174 185 0
-203 204 -209 0
-203 -205 206 0
-203 -205 -209 0
-203 204 206 0
203 -204 205 0
203 -206 209 0
-204 375 177 0
-204 -375 180 0
204 -375 -180 0
204 375 -177 0
-205 375 187 0
-205 -375 189 0
205 -375 -189 0
205 375 -187 0
-206 375 207 0
-206 -375 208 0
206 -375 -208 0
206 375 -207 0
-207 376 176 0
-207 333 365 -376 0
207 376 -176 0
207 -333 -376 0
207 -365 -376 0
-208 -376 181 0
-208 332 364 376 0
208 -364 376 0
208 -376 -181 0
208 -332 376 0
-209 375 210 0
-209 -375 211 0
209 -375 -211 0
209 375 -210 0
-210 334 376 0
-210 333 -376 0
210 -334 376 0
210 -333 -376 0
-211 332 376 0
-211 331 -376 0
211 -332 376 0
211 -331 -376 0
-212 -375 207 0
-212 375 213 0
-212 -375 -210 0
212 375 -213 0
212 -375 -207 210 0
213 376 -214 0
213 335 -367 -376 0
-213 376 214 0
-213 -335 -376 0
-213 367 -376 0
214 336 -368 0
-214 -336 0
-214 368 0
-215 375 216 220 0
-215 216 219 220 0
215 -220 0
215 -216 0
215 -375 -219 0
216 375 -195 0
216 374 -217 0
216 375 -217 0
216 374 -195 0
-216 -374 -375 0
-216 195 217 0
-217 372 376 0
-217 -376 218 0
-217 -340 376 0
217 -376 -218 0
217 340 -372 376 0
218 339 -371 0
-218 -339 0
-218 371 0
-219 175 213 0
-219 -186 213 0
219 -213 0
219 -175 186 0
-220 373 -374 221 0
-220 373 193 221 0
220 -373 0
220 -221 0
220 374 -193 0
-221 -375 222 0
-221 197 222 0
221 -222 0
221 375 -197 0
222 376 -194 0
222 337 -369 -376 0
-222 376 194 0
-222 -337 -376 0
-222 369 -376 0
223 224 229 -234 0
223 224 -231 -234 0
-223 -224 0
-223 234 0
-223 -229 231 0
224 -374 -91 0
224 374 -225 0
-224 374 225 0
-224 -374 91 0
225 -375 -226 0
225 375 -208 211 0
-225 375 208 0
-225 -375 226 0
-225 375 -211 0
226 330 376 -227 0
226 329 -376 -227 0
-226 227 0
-226 -330 376 0
-226 -329 -376 0
-227 376 228 0
-227 329 361 -376 0
227 376 -228 0
227 -329 -376 0
227 -361 -376 0
-228 330 362 0
228 -330 0
228 -362 0
-229 374 206 0
-229 -374 230 0
229 -374 -230 0
229 374 -206 0
-230 -375 95 0
-230 375 227 0
230 375 -227 0
230 -375 -95 0
-231 374 209 0
-231 -374 232 0
231 -374 -232 0
231 374 -209 0
-232 -375 97 0
-232 375 233 0
232 375 -233 0
232 -375 -97 0
-233 330 376 0
-233 329 -376 0
233 -330 376 0
233 -329 -376 0
234 235 239 -244 0
234 -237 239 -244 0
-234 244 0
-234 -239 0
-234 -235 237 0
-235 -374 105 0
-235 374 236 0
235 374 -236 0
235 -374 -105 0
-236 -375 124 0
-236 375 182 0
236 375 -182 0
236 -375 -124 0
-237 -374 114 0
-237 374 238 0
237 374 -238 0
237 -374 -114 0
-238 -375 128 0
-238 375 190 0
238 375 -190 0
238 -375 -128 0
-239 -241 242 0
-239 240 -243 0
-239 -241 -243 0
-239 240 242 0
239 -240 241 0
239 -242 243 0
240 374 -230 0
240 -374 -131 0
-240 -374 131 0
-240 374 230 0
-241 -374 133 0
-241 374 232 0
241 374 -232 0
241 -374 -133 0
-242 -374 123 0
-242 374 179 0
242 374 -179 0
242 -374 -123 0
-243 -374 127 0
-243 374 188 0
243 374 -188 0
243 -374 -127 0
244 -373 245 247 0
244 -373 -246 247 0
-244 373 0
-244 -247 0
-244 -245 246 0
245 -374 -236 0
245 374 -204 0
-245 374 204 0
-245 -374 236 0
-246 374 205 0
-246 -374 238 0
246 -374 -238 0
246 374 -205 0
247 -374 -225 0
247 374 -212 0
-247 374 212 0
-247 -374 225 0
248 -249 252 254 0
248 -250 252 254 0
-248 -254 0
-248 -252 0
-248 249 250 0
249 372 373 -240 0
249 372 -373 -15 0
-249 -372 0
-249 -373 15 0
-249 373 240 0
-250 53 71 168 251 0
250 -251 0
250 -53 0
250 -168 0
250 -71 0
-251 372 78 169 0
-251 76 78 169 0
251 -169 0
251 -78 0
251 -372 -76 0
-252 356 67 253 0
252 -253 0
252 -67 0
252 -356 0
-253 354 355 49 0
253 -49 0
253 -355 0
253 -354 0
-254 166 241 256 0
-254 166 -255 256 0
254 -166 0
254 -256 0
254 -241 255 0
-255 372 373 0
255 -372 0
255 -373 0
256 -372 -12 0
256 -373 -26 0
256 -372 -373 0
-256 372 26 0
-256 373 12 0
-256 372 373 0
-257 -162 261 0
-257 258 261 0
-257 -48 261 0
257 -261 0
257 48 162 -258 0
-258 42 50 65 259 0
258 -259 0
258 -42 0
258 -65 0
258 -50 0
-259 160 260 0
259 -160 0
259 -260 0
-260 33 41 0
260 -33 0
260 -41 0
261 -262 267 268 269 0
-261 262 0
-261 -269 0
-261 -268 0
-261 -267 0
-262 169 263 265 266 0
262 -266 0
262 -169 0
262 -263 0
262 -265 0
-263 242 264 0
-263 -255 264 0
263 -264 0
263 -242 255 0
-264 373 44 260 0
-264 44 138 260 0
264 -260 0
264 -44 0
264 -373 -138 0
265 -372 -373 0
265 -372 -55 0
-265 372 0
-265 373 55 0
-266 43 167 0
266 -43 0
266 -167 0
-267 372 142 0
-267 373 60 0
-267 372 373 0
267 -372 -60 0
267 -373 -142 0
267 -372 -373 0
-268 358 169 243 0
-268 358 169 -255 0
268 -358 0
268 -169 0
268 -243 255 0
-269 66 266 270 271 0
269 -271 0
269 -66 0
269 -270 0
269 -266 0
-270 356 357 0
270 -356 0
270 -357 0
-271 352 353 354 355 0
271 -355 0
271 -354 0
271 -352 0
271 -353 0
272 373 48 -153 0
-272 -373 0
-272 -48 0
-272 153 0
-273 274 276 286 0
-273 -164 274 276 0
273 -276 0
273 -274 0
273 164 -286 0
274 39 -88 252 275 0
-274 -275 0
-274 -39 0
-274 -252 0
-274 88 0
-275 34 36 0
275 -34 0
275 -36 0
276 -278 282 0
276 372 -277 282 0
-276 -282 0
-276 277 278 0
-276 -372 278 0
-277 -373 161 0
-277 373 235 0
277 373 -235 0
277 -373 -161 0
-278 372 49 279 0
-278 49 81 279 0
278 -279 0
278 -49 0
278 -372 -81 0
-279 43 65 280 281 0
279 -281 0
279 -43 0
279 -280 0
279 -65 0
-280 33 168 0
280 -33 0
280 -168 0
-281 371 45 0
281 -371 0
281 -45 0
-282 359 46 283 284 0
282 -359 0
282 -284 0
282 -283 0
282 -46 0
-283 371 45 237 0
-283 371 45 -255 0
283 -371 0
283 -45 0
283 -237 255 0
-284 372 38 285 0
-284 38 84 285 0
284 -285 0
284 -38 0
284 -372 -84 0
-285 373 53 280 0
-285 53 163 280 0
285 -280 0
285 -53 0
285 -373 -163 0
-286 -372 -373 0
-286 372 287 0
-286 -372 157 0
286 372 -287 0
286 -372 373 -157 0
-287 373 247 0
-287 -373 90 0
287 -373 -90 0
287 373 -247 0
-288 289 293 300 307 0
288 -307 0
288 -300 0
288 -289 0
288 -293 0
289 372 -290 0
289 373 -151 -290 0
-289 290 0
-289 -372 151 0
-289 -372 -373 0
290 -224 291 292 0
290 -255 291 292 0
-290 -292 0
-290 -291 0
-290 224 255 0
-291 356 357 -135 0
-291 356 357 373 0
291 -356 0
291 -357 0
291 -373 135 0
-292 358 169 253 266 0
292 -358 0
292 -266 0
292 -253 0
292 -169 0
293 164 -294 298 0
293 164 -295 298 0
-293 -164 0
-293 -298 0
-293 294 295 0
-294 356 165 0
294 -356 0
294 -165 0
-295 170 271 296 0
295 -170 0
295 -271 0
295 -296 0
296 -372 -373 0
296 372 -297 0
296 -372 -158 0
-296 372 297 0
-296 -372 373 158 0
297 373 -173 0
297 -373 -122 0
-297 -373 122 0
-297 373 173 0
298 -372 -373 0
298 372 -299 0
298 -372 -159 0
-298 372 299 0
-298 -372 373 159 0
299 373 -184 0
299 -373 -126 0
-299 -373 126 0
-299 373 184 0
300 164 -302 304 0
300 164 -301 304 0
-300 -164 0
-300 -304 0
-300 301 302 0
301 372 373 -245 0
301 372 -373 -104 0
-301 -372 0
-301 -373 104 0
-301 373 245 0
302 -372 -303 0
-302 372 0
-302 303 0
-303 373 146 0
303 -373 0
303 -146 0
304 372 -305 0
304 -372 -306 0
-304 -372 306 0
-304 372 305 0
305 373 -246 0
305 -373 -113 0
-305 -373 113 0
-305 373 246 0
-306 373 148 0
306 -373 0
306 -148 0
-307 -306 308 0
-307 303 308 0
-307 -48 308 0
307 -308 0
307 48 -303 306 0
308 164 -310 311 0
308 164 -309 311 0
-308 -164 0
-308 -311 0
-308 309 310 0
309 372 -373 -130 0
309 372 373 -229 0
-309 -372 0
-309 -373 130 0
-309 373 229 0
310 -372 -373 0
310 -372 -155 0
-310 372 0
-310 373 155 0
311 -372 -373 0
311 372 -312 0
311 -372 -156 0
-311 372 312 0
-311 -372 373 156 0
312 373 -231 0
312 -373 -132 0
-312 -373 132 0
-312 373 231 0
-377 0
2 0

